#######################



#######################
Set parameter TimeLimit to value 500
Set parameter SoftMemLimit to value 125
Set parameter MIPFocus to value 2
Set parameter LogFile to value 1202-MIPFocus2-Presolve2-TimeLimit500-k16x240-4.log
Set parameter Presolve to value 2
Set parameter Seed to value 14
Using license file /opt/gurobi/gurobi.lic

Gurobi Optimizer version 12.0.2 build v12.0.2rc0 (linux64 - "Ubuntu 22.04.4 LTS")
Copyright (c) 2025, Gurobi Optimization, LLC

Read MPS format model from file /miplib2010/k16x240.mps.bz2
Reading time = 0.00 seconds
k16x240: 256 rows, 480 columns, 960 nonzeros

Using Gurobi shared library /nfs/shared/static-builds/gurobi1202

CPU model: Intel(R) Xeon(R) E-2388G CPU @ 3.20GHz, instruction set [SSE2|AVX|AVX2|AVX512]
Thread count: 8 physical cores, 16 logical processors, using up to 16 threads

Non-default parameters:
TimeLimit  500
SoftMemLimit  125
MIPFocus  2
Presolve  2
Seed  14

Optimize a model with 256 rows, 480 columns and 960 nonzeros
Model fingerprint: 0x4e80885f
Variable types: 240 continuous, 240 integer (240 binary)
Coefficient statistics:
  Matrix range     [1e+00, 1e+03]
  Objective range  [1e+00, 1e+03]
  Bounds range     [1e+00, 1e+03]
  RHS range        [4e+00, 4e+02]
Found heuristic solution: objective 19431.000000
Presolve time: 0.00s
Presolved: 256 rows, 480 columns, 960 nonzeros
Variable types: 240 continuous, 240 integer (240 binary)
Root relaxation presolve removed 241 rows and 240 columns
Root relaxation presolved: 15 rows, 240 columns, 450 nonzeros


Root relaxation: objective 2.769838e+03, 16 iterations, 0.00 seconds (0.00 work units)

    Nodes    |    Current Node    |     Objective Bounds      |     Work
 Expl Unexpl |  Obj  Depth IntInf | Incumbent    BestBd   Gap | It/Node Time

     0     0 2769.83800    0   14 19431.0000 2769.83800  85.7%     -    0s
H    0     0                    11359.000000 2769.83800  75.6%     -    0s
H    0     0                    11252.000000 2769.83800  75.4%     -    0s
H    0     0                    11240.000000 8116.87580  27.8%     -    0s
     0     0 8116.87580    0   26 11240.0000 8116.87580  27.8%     -    0s
H    0     0                    11174.000000 8190.91086  26.7%     -    0s
H    0     0                    11094.000000 8190.91086  26.2%     -    0s
H    0     0                    11077.000000 8190.91086  26.1%     -    0s
H    0     0                    11071.000000 8588.30479  22.4%     -    0s
H    0     0                    11020.000000 8588.30479  22.1%     -    0s
     0     0 8588.30479    0   25 11020.0000 8588.30479  22.1%     -    0s
H    0     0                    10887.000000 8589.44419  21.1%     -    0s
     0     0 8613.92228    0   22 10887.0000 8613.92228  20.9%     -    0s
     0     0 8709.94047    0   22 10887.0000 8709.94047  20.0%     -    0s
H    0     0                    10855.000000 8713.56101  19.7%     -    0s
H    0     0                    10781.000000 8713.56101  19.2%     -    0s
     0     0 8841.00340    0   36 10781.0000 8841.00340  18.0%     -    0s
     0     0 8841.34133    0   27 10781.0000 8841.34133  18.0%     -    0s
     0     0 8918.66078    0   38 10781.0000 8918.66078  17.3%     -    0s
     0     0 8947.49358    0   37 10781.0000 8947.49358  17.0%     -    0s
     0     0 8968.98684    0   43 10781.0000 8968.98684  16.8%     -    0s
     0     0 8974.57166    0   39 10781.0000 8974.57166  16.8%     -    0s
     0     0 9049.80580    0   41 10781.0000 9049.80580  16.1%     -    0s
     0     0 9059.02807    0   44 10781.0000 9059.02807  16.0%     -    0s
     0     0 9095.64569    0   36 10781.0000 9095.64569  15.6%     -    0s
     0     0 9101.62421    0   39 10781.0000 9101.62421  15.6%     -    0s
     0     0 9120.58280    0   34 10781.0000 9120.58280  15.4%     -    0s
     0     0 9122.81411    0   34 10781.0000 9122.81411  15.4%     -    0s
     0     2 9122.81411    0   34 10781.0000 9122.81411  15.4%     -    0s
H   38    59                    10678.000000 9237.12220  13.5%  62.5    0s
H  475   408                    10674.000000 9371.15314  12.2%  26.4    0s
 21620  8980 10040.8035   24   19 10674.0000 9940.19083  6.87%  25.1    5s
 61998 17151 10222.8047   24   39 10674.0000 10153.7145  4.87%  26.6   10s
 98527 18368     cutoff   29      10674.0000 10287.1370  3.62%  27.2   15s
 132553 12782     cutoff   30      10674.0000 10408.7367  2.49%  27.4   20s

Cutting planes:
  Lift-and-project: 10
  Cover: 85
  Implied bound: 22
  Dual implied bound: 4
  MIR: 164
  Mixing: 1
  Flow cover: 337
  Flow path: 41
  Inf proof: 1
  Zero half: 10
  Network: 43
  Relax-and-lift: 1

Explored 156919 nodes (4194609 simplex iterations) in 23.43 seconds (33.17 work units)
Thread count was 16 (of 16 available processors)

Solution count 10: 10674 10678 10781 ... 11174

Optimal solution found (tolerance 1.00e-04)
Best objective 1.067400000000e+04, best bound 1.067400000000e+04, gap 0.0000%
